c 3 - XORSAT
p cnf 50 200
22 47 48 0
-22 -47 48 0
-22 47 -48 0
22 -47 -48 0
-6 -7 -43 0
-6 7 43 0
6 -7 43 0
6 7 -43 0
-8 -41 -43 0
-8 41 43 0
8 -41 43 0
8 41 -43 0
-16 -37 -44 0
-16 37 44 0
16 -37 44 0
16 37 -44 0
1 9 29 0
-1 -9 29 0
-1 9 -29 0
1 -9 -29 0
-3 -11 -37 0
-3 11 37 0
3 -11 37 0
3 11 -37 0
13 15 36 0
-13 -15 36 0
-13 15 -36 0
13 -15 -36 0
-2 -10 -20 0
-2 10 20 0
2 -10 20 0
2 10 -20 0
10 22 31 0
-10 -22 31 0
-10 22 -31 0
10 -22 -31 0
12 23 30 0
-12 -23 30 0
-12 23 -30 0
12 -23 -30 0
-1 -17 -26 0
-1 17 26 0
1 -17 26 0
1 17 -26 0
11 12 50 0
-11 -12 50 0
-11 12 -50 0
11 -12 -50 0
1 24 28 0
-1 -24 28 0
-1 24 -28 0
1 -24 -28 0
21 22 29 0
-21 -22 29 0
-21 22 -29 0
21 -22 -29 0
23 33 49 0
-23 -33 49 0
-23 33 -49 0
23 -33 -49 0
35 38 39 0
-35 -38 39 0
-35 38 -39 0
35 -38 -39 0
43 45 50 0
-43 -45 50 0
-43 45 -50 0
43 -45 -50 0
5 33 47 0
-5 -33 47 0
-5 33 -47 0
5 -33 -47 0
-6 -17 -12 0
-6 17 12 0
6 -17 12 0
6 17 -12 0
3 19 36 0
-3 -19 36 0
-3 19 -36 0
3 -19 -36 0
-2 -32 -34 0
-2 32 34 0
2 -32 34 0
2 32 -34 0
11 13 45 0
-11 -13 45 0
-11 13 -45 0
11 -13 -45 0
-17 -27 -29 0
-17 27 29 0
17 -27 29 0
17 27 -29 0
-14 -25 -28 0
-14 25 28 0
14 -25 28 0
14 25 -28 0
48 50 16 0
-48 -50 16 0
-48 50 -16 0
48 -50 -16 0
-27 -28 -38 0
-27 28 38 0
27 -28 38 0
27 28 -38 0
47 49 42 0
-47 -49 42 0
-47 49 -42 0
47 -49 -42 0
-2 -13 -14 0
-2 13 14 0
2 -13 14 0
2 13 -14 0
-24 -44 -46 0
-24 44 46 0
24 -44 46 0
24 44 -46 0
-27 -42 -46 0
-27 42 46 0
27 -42 46 0
27 42 -46 0
5 18 21 0
-5 -18 21 0
-5 18 -21 0
5 -18 -21 0
8 15 24 0
-8 -15 24 0
-8 15 -24 0
8 -15 -24 0
-4 -18 -19 0
-4 18 19 0
4 -18 19 0
4 18 -19 0
-6 -15 -26 0
-6 15 26 0
6 -15 26 0
6 15 -26 0
-19 -23 -45 0
-19 23 45 0
19 -23 45 0
19 23 -45 0
-7 -8 -20 0
-7 8 20 0
7 -8 20 0
7 8 -20 0
5 37 39 0
-5 -37 39 0
-5 37 -39 0
5 -37 -39 0
14 21 25 0
-14 -21 25 0
-14 21 -25 0
14 -21 -25 0
-4 -39 -41 0
-4 39 41 0
4 -39 41 0
4 39 -41 0
3 16 31 0
-3 -16 31 0
-3 16 -31 0
3 -16 -31 0
26 40 49 0
-26 -40 49 0
-26 40 -49 0
26 -40 -49 0
32 40 48 0
-32 -40 48 0
-32 40 -48 0
32 -40 -48 0
-4 -30 -35 0
-4 30 35 0
4 -30 35 0
4 30 -35 0
-40 -42 -46 0
-40 42 46 0
40 -42 46 0
40 42 -46 0
9 10 33 0
-9 -10 33 0
-9 10 -33 0
9 -10 -33 0
35 36 41 0
-35 -36 41 0
-35 36 -41 0
35 -36 -41 0
-18 -30 -34 0
-18 30 34 0
18 -30 34 0
18 30 -34 0
7 25 44 0
-7 -25 44 0
-7 25 -44 0
7 -25 -44 0
9 32 38 0
-9 -32 38 0
-9 32 -38 0
9 -32 -38 0
20 31 34 0
-20 -31 34 0
-20 31 -34 0
20 -31 -34 0
